VER
4

OBJSENSE
MIN

VAR
137 1
F 137

CON
444 3
SVECQRE 273
SVECPSD 136
L= 35

OBJACOORD
1
0 1.0

ACOORD
506
0 0 1.0
1 1 1.0
2 2 1.0
3 3 1.0
4 4 1.0
5 5 1.0
6 6 1.0
7 7 1.0
8 8 1.0
9 9 1.0
10 10 1.0
11 11 1.0
12 12 1.0
13 13 1.0
14 14 1.0
15 15 1.0
16 16 1.0
17 17 1.0
18 18 1.0
19 19 1.0
20 20 1.0
21 21 1.0
22 22 1.0
23 23 1.0
24 24 1.0
25 25 1.0
26 26 1.0
27 27 1.0
28 28 1.0
29 29 1.0
30 30 1.0
31 31 1.0
32 32 1.0
33 33 1.0
34 34 1.0
35 35 1.0
36 36 1.0
37 37 1.0
38 38 1.0
39 39 1.0
40 40 1.0
41 41 1.0
42 42 1.0
43 43 1.0
44 44 1.0
45 45 1.0
46 46 1.0
47 47 1.0
48 48 1.0
49 49 1.0
50 50 1.0
51 51 1.0
52 52 1.0
53 53 1.0
54 54 1.0
55 55 1.0
56 56 1.0
57 57 1.0
58 58 1.0
59 59 1.0
60 60 1.0
61 61 1.0
62 62 1.0
63 63 1.0
64 64 1.0
65 65 1.0
66 66 1.0
67 67 1.0
68 68 1.0
69 69 1.0
70 70 1.0
71 71 1.0
72 72 1.0
73 73 1.0
74 74 1.0
75 75 1.0
76 76 1.0
77 77 1.0
78 78 1.0
79 79 1.0
80 80 1.0
81 81 1.0
82 82 1.0
83 83 1.0
84 84 1.0
85 85 1.0
86 86 1.0
87 87 1.0
88 88 1.0
89 89 1.0
90 90 1.0
91 91 1.0
92 92 1.0
93 93 1.0
94 94 1.0
95 95 1.0
96 96 1.0
97 97 1.0
98 98 1.0
99 99 1.0
100 100 1.0
101 101 1.0
102 102 1.0
103 103 1.0
104 104 1.0
105 105 1.0
106 106 1.0
107 107 1.0
108 108 1.0
109 109 1.0
110 110 1.0
111 111 1.0
112 112 1.0
113 113 1.0
114 114 1.0
115 115 1.0
116 116 1.0
117 117 1.0
118 118 1.0
119 119 1.0
120 120 1.0
121 121 1.0
122 122 1.0
123 123 1.0
124 124 1.0
125 125 1.0
126 126 1.0
127 127 1.0
128 128 1.0
129 129 1.0
130 130 1.0
131 131 1.0
132 132 1.0
133 133 1.0
134 134 1.0
135 135 1.0
136 136 1.0
137 1 1.0
138 2 1.0
139 3 1.0
140 4 1.0
141 5 1.0
142 6 1.0
143 7 1.0
144 8 1.0
145 9 1.0
146 10 1.0
151 15 1.0
156 20 1.0
157 21 1.0
162 26 1.0
163 27 1.0
164 28 1.0
169 33 1.0
170 34 1.0
171 35 1.0
172 36 1.0
181 45 1.0
190 54 1.0
191 55 1.0
200 64 1.0
201 65 1.0
202 66 1.0
211 75 1.0
212 76 1.0
213 77 1.0
214 78 1.0
227 91 1.0
240 104 1.0
241 105 1.0
254 118 1.0
255 119 1.0
256 120 1.0
269 133 1.0
270 134 1.0
271 135 1.0
272 136 1.0
273 1 1.0
274 2 1.0
275 3 1.0
276 4 1.0
277 5 1.0
278 6 1.0
279 7 1.0
280 8 1.0
281 9 1.0
282 10 1.0
283 11 1.0
284 12 1.0
285 13 1.0
286 14 1.0
287 15 1.0
288 16 1.0
289 17 1.0
290 18 1.0
291 19 1.0
292 20 1.0
293 21 1.0
294 22 1.0
295 23 1.0
296 24 1.0
297 25 1.0
298 26 1.0
299 27 1.0
300 28 1.0
301 29 1.0
302 30 1.0
303 31 1.0
304 32 1.0
305 33 1.0
306 34 1.0
307 35 1.0
308 36 1.0
309 37 1.0
310 38 1.0
311 39 1.0
312 40 1.0
313 41 1.0
314 42 1.0
315 43 1.0
316 44 1.0
317 45 1.0
318 46 1.0
319 47 1.0
320 48 1.0
321 49 1.0
322 50 1.0
323 51 1.0
324 52 1.0
325 53 1.0
326 54 1.0
327 55 1.0
328 56 1.0
329 57 1.0
330 58 1.0
331 59 1.0
332 60 1.0
333 61 1.0
334 62 1.0
335 63 1.0
336 64 1.0
337 65 1.0
338 66 1.0
339 67 1.0
340 68 1.0
341 69 1.0
342 70 1.0
343 71 1.0
344 72 1.0
345 73 1.0
346 74 1.0
347 75 1.0
348 76 1.0
349 77 1.0
350 78 1.0
351 79 1.0
352 80 1.0
353 81 1.0
354 82 1.0
355 83 1.0
356 84 1.0
357 85 1.0
358 86 1.0
359 87 1.0
360 88 1.0
361 89 1.0
362 90 1.0
363 91 1.0
364 92 1.0
365 93 1.0
366 94 1.0
367 95 1.0
368 96 1.0
369 97 1.0
370 98 1.0
371 99 1.0
372 100 1.0
373 101 1.0
374 102 1.0
375 103 1.0
376 104 1.0
377 105 1.0
378 106 1.0
379 107 1.0
380 108 1.0
381 109 1.0
382 110 1.0
383 111 1.0
384 112 1.0
385 113 1.0
386 114 1.0
387 115 1.0
388 116 1.0
389 117 1.0
390 118 1.0
391 119 1.0
392 120 1.0
393 121 1.0
394 122 1.0
395 123 1.0
396 124 1.0
397 125 1.0
398 126 1.0
399 127 1.0
400 128 1.0
401 129 1.0
402 130 1.0
403 131 1.0
404 132 1.0
405 133 1.0
406 134 1.0
407 135 1.0
408 136 1.0
409 1 1.0
410 3 1.0
411 6 1.0
412 10 1.0
413 15 1.0
414 21 1.0
415 28 1.0
416 36 1.0
417 45 1.0
418 55 1.0
419 66 1.0
420 78 1.0
421 91 1.0
422 105 1.0
423 120 1.0
424 1 0.25
424 2 0.3535533905932738
424 3 0.25
424 11 0.3535533905932738
424 12 0.3535533905932738
424 15 0.25
424 16 0.3535533905932738
424 17 0.3535533905932738
424 20 0.3535533905932738
424 21 0.25
425 1 0.25
425 2 -0.3535533905932738
425 3 0.25
425 11 0.3535533905932738
425 12 -0.3535533905932738
425 15 0.25
425 16 -0.3535533905932738
425 17 0.3535533905932738
425 20 -0.3535533905932738
425 21 0.25
426 6 0.25
426 9 0.3535533905932738
426 10 0.25
426 24 0.3535533905932738
426 25 0.3535533905932738
426 28 0.25
426 31 0.3535533905932738
426 32 0.3535533905932738
426 35 0.3535533905932738
426 36 0.25
427 6 0.25
427 9 -0.3535533905932738
427 10 0.25
427 24 0.3535533905932738
427 25 -0.3535533905932738
427 28 0.25
427 31 -0.3535533905932738
427 32 0.3535533905932738
427 35 -0.3535533905932738
427 36 0.25
428 1 0.25
428 2 0.3535533905932738
428 3 0.25
428 11 -0.3535533905932738
428 12 -0.3535533905932738
428 15 0.25
428 16 -0.3535533905932738
428 17 -0.3535533905932738
428 20 0.3535533905932738
428 21 0.25
429 6 0.25
429 9 0.3535533905932738
429 10 0.25
429 24 -0.3535533905932738
429 25 -0.3535533905932738
429 28 0.25
429 31 -0.3535533905932738
429 32 -0.3535533905932738
429 35 0.3535533905932738
429 36 0.25
430 45 0.25
430 54 0.3535533905932738
430 55 0.25
430 87 0.3535533905932738
430 88 0.3535533905932738
430 91 0.25
430 100 0.3535533905932738
430 101 0.3535533905932738
430 104 0.3535533905932738
430 105 0.25
431 45 0.25
431 54 -0.3535533905932738
431 55 0.25
431 87 0.3535533905932738
431 88 -0.3535533905932738
431 91 0.25
431 100 -0.3535533905932738
431 101 0.3535533905932738
431 104 -0.3535533905932738
431 105 0.25
432 66 0.25
432 77 0.3535533905932738
432 78 0.25
432 116 0.3535533905932738
432 117 0.3535533905932738
432 120 0.25
432 131 0.3535533905932738
432 132 0.3535533905932738
432 135 0.3535533905932738
432 136 0.25
433 66 0.25
433 77 -0.3535533905932738
433 78 0.25
433 116 0.3535533905932738
433 117 -0.3535533905932738
433 120 0.25
433 131 -0.3535533905932738
433 132 0.3535533905932738
433 135 -0.3535533905932738
433 136 0.25
434 45 0.25
434 54 0.3535533905932738
434 55 0.25
434 87 -0.3535533905932738
434 88 -0.3535533905932738
434 91 0.25
434 100 -0.3535533905932738
434 101 -0.3535533905932738
434 104 0.3535533905932738
434 105 0.25
435 66 0.25
435 77 0.3535533905932738
435 78 0.25
435 116 -0.3535533905932738
435 117 -0.3535533905932738
435 120 0.25
435 131 -0.3535533905932738
435 132 -0.3535533905932738
435 135 0.3535533905932738
435 136 0.25
436 3 0.5
436 5 0.7071067811865476
436 6 0.5
437 15 0.5
437 41 0.7071067811865476
437 45 0.5
438 21 0.25
438 27 0.3535533905932738
438 28 0.25
438 51 0.3535533905932738
438 52 0.3535533905932738
438 55 0.25
438 61 0.3535533905932738
438 62 0.3535533905932738
438 65 0.3535533905932738
438 66 0.25
439 21 0.25
439 27 -0.3535533905932738
439 28 0.25
439 51 0.3535533905932738
439 52 -0.3535533905932738
439 55 0.25
439 61 -0.3535533905932738
439 62 0.3535533905932738
439 65 -0.3535533905932738
439 66 0.25
440 36 0.5
440 74 0.7071067811865476
440 78 0.5
441 21 0.25
441 27 0.3535533905932738
441 28 0.25
441 51 -0.3535533905932738
441 52 -0.3535533905932738
441 55 0.25
441 61 -0.3535533905932738
441 62 -0.3535533905932738
441 65 0.3535533905932738
441 66 0.25
442 105 0.5
442 119 0.7071067811865476
442 120 0.5
443 1 1.0
443 3 1.0
443 6 1.0
443 10 1.0
443 15 1.0
443 21 1.0
443 28 1.0
443 36 1.0
443 45 1.0
443 55 1.0
443 66 1.0
443 78 1.0
443 91 1.0
443 105 1.0
443 120 1.0
443 136 1.0

BCOORD
35
409 0.24062499999999998
410 0.0031250000000000028
411 0.0031250000000000028
412 0.0031250000000000028
413 0.0031250000000000028
414 0.24062499999999998
415 0.0031250000000000028
416 0.0031250000000000028
417 0.0031250000000000028
418 0.0031250000000000028
419 0.24062499999999998
420 0.0031250000000000028
421 0.0031250000000000028
422 0.0031250000000000028
423 0.0031250000000000028
424 0.24062499999999998
425 0.003124999999999989
426 0.0031250000000000028
427 0.0031250000000000028
428 0.003124999999999989
429 0.0031250000000000028
430 0.0031250000000000028
431 0.0031250000000000028
432 0.24062499999999998
433 0.003124999999999989
434 0.0031250000000000028
435 0.003124999999999989
436 0.0031250000000000028
437 0.0031250000000000028
438 0.24062499999999998
439 0.003124999999999989
440 0.0031250000000000028
441 0.003124999999999989
442 0.0031250000000000028
443 1.0
